param n := 120;
param c := 1500
param : V : p w :=
   0	  48	  38
   1	 110	 100
   2	  70	  60
   3	  52	  42
   4	  30	  20
   5	  79	  69
   6	  34	  24
   7	  33	  23
   8	 102	  92
   9	  42	  32
  10	  94	  84
  11	  46	  36
  12	  75	  65
  13	  94	  84
  14	  44	  34
  15	  78	  68
  16	  74	  64
  17	  43	  33
  18	  79	  69
  19	  37	  27
  20	  57	  47
  21	  31	  21
  22	  95	  85
  23	  98	  88
  24	  69	  59
  25	  71	  61
  26	  60	  50
  27	  63	  53
  28	  47	  37
  29	  85	  75
  30	  74	  64
  31	  94	  84
  32	  84	  74
  33	  67	  57
  34	  93	  83
  35	  38	  28
  36	  41	  31
  37	 107	  97
  38	  71	  61
  39	  46	  36
  40	  56	  46
  41	  47	  37
  42	 106	  96
  43	  90	  80
  44	  63	  53
  45	  61	  51
  46	  78	  68
  47	 100	  90
  48	  74	  64
  49	  91	  81
  50	  76	  66
  51	  77	  67
  52	  90	  80
  53	  47	  37
  54	 102	  92
  55	  77	  67
  56	  74	  64
  57	  41	  31
  58	 104	  94
  59	  55	  45
  60	  90	  80
  61	  38	  28
  62	  86	  76
  63	  39	  29
  64	  74	  64
  65	  48	  38
  66	  58	  48
  67	  50	  40
  68	  39	  29
  69	  54	  44
  70	  91	  81
  71	  45	  35
  72	  61	  51
  73	  58	  48
  74	  77	  67
  75	  34	  24
  76	  56	  46
  77	  48	  38
  78	  86	  76
  79	  32	  22
  80	  40	  30
  81	  77	  67
  82	  55	  45
  83	  51	  41
  84	  39	  29
  85	  51	  41
  86	  89	  79
  87	  31	  21
  88	  35	  25
  89	 100	  90
  90	  72	  62
  91	  44	  34
  92	  83	  73
  93	  60	  50
  94	  89	  79
  95	  76	  66
  96	  69	  59
  97	  52	  42
  98	 100	  90
  99	  89	  79
 100	  80	  70
 101	  76	  66
 102	  90	  80
 103	  45	  35
 104	  72	  62
 105	 108	  98
 106	 107	  97
 107	  47	  37
 108	  42	  32
 109	  85	  75
 110	 101	  91
 111	 101	  91
 112	  58	  48
 113	  36	  26
 114	  33	  23
 115	  42	  32
 116	 110	 100
 117	  56	  46
 118	  39	  29
 119	  36	  26
;

set E :=
   0	   1
   0	  12
   0	  23
   0	  24
   0	  27
   0	  38
   0	  41
   0	  44
   0	  45
   0	  55
   0	  57
   0	  58
   0	  59
   0	  64
   0	  65
   0	  74
   0	  75
   0	  88
   0	  90
   0	  98
   0	 104
   0	 113
   0	 118
   1	   4
   1	   5
   1	   7
   1	  13
   1	  23
   1	  28
   1	  33
   1	  40
   1	  45
   1	  59
   1	  62
   1	  63
   1	  71
   1	  73
   1	  76
   1	  78
   1	  82
   1	  90
   1	  91
   1	  93
   1	 100
   1	 101
   1	 103
   1	 114
   2	  12
   2	  20
   2	  26
   2	  29
   2	  30
   2	  31
   2	  36
   2	  42
   2	  44
   2	  54
   2	  59
   2	  64
   2	  66
   2	  74
   2	  79
   2	  81
   2	  88
   2	  94
   2	  99
   2	 104
   2	 109
   2	 112
   2	 115
   2	 118
   2	 119
   3	   9
   3	  12
   3	  15
   3	  16
   3	  17
   3	  19
   3	  23
   3	  28
   3	  38
   3	  39
   3	  40
   3	  42
   3	  43
   3	  47
   3	  49
   3	  54
   3	  58
   3	  62
   3	  71
   3	  80
   3	  99
   3	 103
   3	 105
   3	 110
   3	 116
   3	 117
   4	  19
   4	  21
   4	  37
   4	  48
   4	  52
   4	  62
   4	  65
   4	  69
   4	  72
   4	  75
   4	  78
   4	  79
   4	  81
   4	  87
   4	  88
   4	  90
   4	  94
   4	 109
   4	 117
   5	   7
   5	   8
   5	  15
   5	  19
   5	  22
   5	  23
   5	  29
   5	  39
   5	  47
   5	  50
   5	  54
   5	  67
   5	  71
   5	  72
   5	  83
   5	  85
   5	  86
   5	  90
   5	  95
   5	  97
   5	  98
   5	 103
   5	 110
   5	 111
   5	 119
   6	   7
   6	  11
   6	  12
   6	  15
   6	  18
   6	  22
   6	  30
   6	  31
   6	  41
   6	  44
   6	  54
   6	  57
   6	  60
   6	  67
   6	  68
   6	  69
   6	  70
   6	  71
   6	  74
   6	  78
   6	  86
   6	  92
   6	  93
   6	  99
   6	 100
   6	 108
   6	 110
   6	 111
   6	 119
   7	  10
   7	  22
   7	  24
   7	  32
   7	  47
   7	  48
   7	  51
   7	  53
   7	  61
   7	  63
   7	  71
   7	  74
   7	  82
   7	  90
   7	  95
   7	  96
   7	  98
   7	 100
   8	   9
   8	  11
   8	  16
   8	  18
   8	  21
   8	  36
   8	  38
   8	  43
   8	  56
   8	  59
   8	  65
   8	  70
   8	  73
   8	  86
   8	  87
   8	  93
   8	  94
   8	  96
   8	  97
   8	 102
   8	 103
   8	 105
   8	 113
   8	 115
   8	 116
   8	 117
   8	 119
   9	  11
   9	  12
   9	  16
   9	  28
   9	  36
   9	  41
   9	  49
   9	  66
   9	  76
   9	  93
   9	 102
   9	 116
  10	  15
  10	  17
  10	  18
  10	  21
  10	  34
  10	  38
  10	  47
  10	  59
  10	  67
  10	  75
  10	  80
  10	  84
  10	  90
  10	 111
  10	 112
  10	 116
  11	  19
  11	  33
  11	  35
  11	  37
  11	  40
  11	  53
  11	  65
  11	  70
  11	  75
  11	  77
  11	  86
  11	  90
  11	  91
  11	  93
  11	 100
  11	 107
  11	 108
  11	 114
  11	 115
  12	  25
  12	  27
  12	  28
  12	  29
  12	  31
  12	  49
  12	  58
  12	  60
  12	  62
  12	  67
  12	  70
  12	  72
  12	  73
  12	  75
  12	  79
  12	  84
  12	  90
  12	  93
  12	  94
  12	 103
  12	 109
  12	 116
  12	 117
  13	  14
  13	  26
  13	  29
  13	  33
  13	  38
  13	  43
  13	  48
  13	  52
  13	  55
  13	  56
  13	  61
  13	  63
  13	  70
  13	  72
  13	  81
  13	  88
  13	  92
  13	  93
  13	  94
  13	 100
  13	 108
  13	 110
  13	 112
  14	  16
  14	  17
  14	  22
  14	  29
  14	  32
  14	  39
  14	  45
  14	  55
  14	  56
  14	  61
  14	  68
  14	  84
  14	  92
  14	 100
  14	 113
  15	  22
  15	  25
  15	  28
  15	  29
  15	  32
  15	  39
  15	  46
  15	  48
  15	  49
  15	  50
  15	  57
  15	  62
  15	  88
  15	  89
  15	  91
  15	  94
  15	 105
  15	 117
  16	  18
  16	  20
  16	  23
  16	  41
  16	  42
  16	  44
  16	  46
  16	  50
  16	  56
  16	  57
  16	  58
  16	  61
  16	  62
  16	  68
  16	  71
  16	  75
  16	  82
  16	  85
  16	  88
  16	  89
  16	  90
  16	  92
  16	  97
  16	  99
  16	 101
  16	 111
  16	 112
  16	 114
  16	 115
  16	 117
  16	 119
  17	  26
  17	  45
  17	  51
  17	  52
  17	  55
  17	  66
  17	  69
  17	  71
  17	  77
  17	  81
  17	  89
  17	  96
  17	  97
  17	 100
  17	 106
  17	 108
  17	 109
  17	 112
  17	 113
  17	 115
  17	 117
  18	  33
  18	  36
  18	  42
  18	  52
  18	  54
  18	  55
  18	  59
  18	  62
  18	  68
  18	  69
  18	  71
  18	  84
  18	  93
  18	  96
  18	 100
  18	 107
  18	 112
  19	  31
  19	  33
  19	  37
  19	  42
  19	  52
  19	  65
  19	  83
  19	  90
  19	 101
  19	 102
  20	  21
  20	  26
  20	  40
  20	  43
  20	  51
  20	  59
  20	  82
  20	  85
  20	  93
  20	  94
  20	  95
  20	  97
  20	 103
  20	 105
  20	 113
  20	 119
  21	  26
  21	  31
  21	  44
  21	  56
  21	  57
  21	  69
  21	  77
  21	  94
  21	  96
  21	  98
  21	 115
  21	 118
  22	  35
  22	  41
  22	  48
  22	  50
  22	  54
  22	  77
  22	  78
  22	  80
  22	  81
  22	  87
  22	  95
  22	  96
  22	 100
  22	 110
  22	 111
  22	 115
  22	 118
  23	  24
  23	  25
  23	  41
  23	  43
  23	  49
  23	  56
  23	  60
  23	  62
  23	  69
  23	  75
  23	  76
  23	  79
  23	  87
  23	  88
  23	  94
  23	 110
  23	 114
  23	 116
  23	 118
  24	  25
  24	  33
  24	  34
  24	  35
  24	  39
  24	  44
  24	  47
  24	  49
  24	  52
  24	  54
  24	  55
  24	  63
  24	  65
  24	  72
  24	  75
  24	  85
  24	  86
  24	  89
  24	  92
  24	  93
  24	  98
  24	  99
  24	 102
  24	 104
  24	 106
  24	 107
  24	 110
  24	 112
  24	 117
  25	  27
  25	  29
  25	  33
  25	  39
  25	  41
  25	  42
  25	  46
  25	  50
  25	  53
  25	  56
  25	  58
  25	  67
  25	  73
  25	  75
  25	  88
  25	  92
  25	  94
  25	 103
  25	 104
  25	 105
  25	 114
  25	 117
  26	  32
  26	  34
  26	  36
  26	  37
  26	  40
  26	  42
  26	  43
  26	  44
  26	  47
  26	  54
  26	  56
  26	  57
  26	  58
  26	  60
  26	  66
  26	  68
  26	  74
  26	  91
  26	  95
  26	  96
  26	  99
  26	 107
  26	 110
  26	 117
  26	 119
  27	  29
  27	  31
  27	  36
  27	  45
  27	  46
  27	  50
  27	  51
  27	  55
  27	  56
  27	  58
  27	  60
  27	  69
  27	  74
  27	  76
  27	  77
  27	  78
  27	  85
  27	  86
  27	  98
  27	 110
  27	 112
  27	 117
  28	  29
  28	  34
  28	  35
  28	  37
  28	  46
  28	  49
  28	  50
  28	  55
  28	  62
  28	  66
  28	  71
  28	  73
  28	  84
  28	  85
  28	  87
  28	  89
  28	  92
  28	  94
  28	  95
  28	 100
  28	 108
  28	 111
  29	  31
  29	  33
  29	  34
  29	  38
  29	  43
  29	  46
  29	  49
  29	  50
  29	  60
  29	  68
  29	  69
  29	  72
  29	  75
  29	  76
  29	  81
  29	  82
  29	  93
  29	  99
  29	 104
  29	 105
  29	 108
  29	 109
  29	 117
  30	  33
  30	  35
  30	  36
  30	  43
  30	  44
  30	  46
  30	  49
  30	  51
  30	  60
  30	  61
  30	  62
  30	  65
  30	  73
  30	  85
  30	  93
  30	  96
  30	  97
  30	  99
  30	 106
  31	  40
  31	  47
  31	  51
  31	  53
  31	  59
  31	  69
  31	  76
  31	  94
  31	 103
  31	 104
  31	 106
  31	 108
  31	 109
  31	 112
  31	 113
  32	  33
  32	  34
  32	  38
  32	  46
  32	  48
  32	  51
  32	  71
  32	  80
  32	  81
  32	  83
  32	  84
  32	  86
  32	  88
  32	  92
  32	  97
  32	 102
  32	 110
  32	 113
  32	 114
  32	 115
  33	  36
  33	  38
  33	  40
  33	  50
  33	  51
  33	  56
  33	  65
  33	  68
  33	  73
  33	  85
  33	  88
  33	  97
  33	 103
  33	 104
  33	 118
  33	 119
  34	  35
  34	  40
  34	  47
  34	  50
  34	  59
  34	  63
  34	  72
  34	  75
  34	  81
  34	  88
  34	  96
  34	 106
  34	 109
  34	 112
  34	 113
  34	 117
  34	 118
  35	  43
  35	  49
  35	  52
  35	  55
  35	  57
  35	  62
  35	  63
  35	  67
  35	  68
  35	  71
  35	  74
  35	  81
  35	  83
  35	  91
  35	  98
  35	  99
  35	 118
  36	  46
  36	  52
  36	  53
  36	  54
  36	  59
  36	  64
  36	  73
  36	  74
  36	  77
  36	  85
  36	  87
  36	  91
  36	  96
  36	 101
  36	 114
  36	 117
  37	  38
  37	  42
  37	  55
  37	  58
  37	  62
  37	  65
  37	  66
  37	  67
  37	  68
  37	  73
  37	  77
  37	  80
  37	  84
  37	  85
  37	  92
  37	  95
  37	  97
  37	  98
  37	 105
  38	  47
  38	  72
  38	  79
  38	  80
  38	  86
  38	  89
  38	  92
  38	  95
  38	 101
  38	 103
  38	 112
  38	 113
  38	 116
  38	 117
  39	  46
  39	  56
  39	  59
  39	  63
  39	  65
  39	  66
  39	  67
  39	  69
  39	  74
  39	  76
  39	  79
  39	  84
  39	  88
  39	  92
  39	  97
  39	 101
  39	 106
  39	 112
  39	 114
  39	 115
  40	  46
  40	  48
  40	  50
  40	  52
  40	  54
  40	  63
  40	  73
  40	  74
  40	  75
  40	  77
  40	  80
  40	  91
  40	  98
  40	 101
  40	 108
  40	 109
  40	 110
  40	 115
  40	 118
  41	  42
  41	  46
  41	  47
  41	  50
  41	  73
  41	  74
  41	  76
  41	  78
  41	  84
  41	  88
  41	  93
  41	 103
  41	 105
  41	 107
  41	 117
  42	  43
  42	  44
  42	  46
  42	  47
  42	  52
  42	  53
  42	  58
  42	  62
  42	  65
  42	  69
  42	  73
  42	  79
  42	  85
  42	  89
  42	  96
  42	 101
  42	 102
  42	 103
  42	 105
  42	 110
  42	 116
  43	  46
  43	  48
  43	  52
  43	  54
  43	  61
  43	  62
  43	  65
  43	  76
  43	  79
  43	  80
  43	  81
  43	  82
  43	  85
  43	  88
  43	  89
  43	  93
  43	  95
  43	  97
  43	  99
  43	 100
  43	 102
  43	 105
  43	 109
  43	 113
  43	 118
  44	  61
  44	  62
  44	  65
  44	  72
  44	  77
  44	  82
  44	  83
  44	  86
  44	  89
  44	  94
  44	  95
  44	  98
  44	 107
  44	 118
  44	 119
  45	  46
  45	  58
  45	  64
  45	  67
  45	  68
  45	  72
  45	  73
  45	  74
  45	  85
  45	  86
  45	  89
  45	  96
  45	  98
  45	 104
  45	 114
  45	 115
  46	  53
  46	  61
  46	  70
  46	  72
  46	  73
  46	  75
  46	  83
  46	  87
  46	  90
  46	  94
  46	 101
  46	 102
  46	 111
  46	 112
  46	 117
  47	  50
  47	  55
  47	  57
  47	  59
  47	  65
  47	  69
  47	  70
  47	  85
  47	  87
  47	 112
  47	 114
  47	 119
  48	  50
  48	  54
  48	  62
  48	  66
  48	  72
  48	 100
  48	 101
  48	 107
  48	 117
  48	 118
  49	  56
  49	  63
  49	  64
  49	  69
  49	  75
  49	  80
  49	  84
  49	  89
  49	  96
  49	 101
  49	 103
  49	 105
  49	 110
  49	 112
  49	 113
  49	 115
  49	 117
  50	  56
  50	  61
  50	  65
  50	  66
  50	  67
  50	  71
  50	  74
  50	  75
  50	  86
  50	  95
  50	  98
  50	 102
  50	 106
  50	 116
  51	  66
  51	  67
  51	  87
  51	  89
  51	  91
  51	  94
  51	  96
  51	 100
  51	 103
  51	 112
  51	 113
  51	 119
  52	  57
  52	  58
  52	  64
  52	  67
  52	  69
  52	  70
  52	  72
  52	  82
  52	  92
  52	  93
  52	  95
  52	  98
  52	 105
  53	  54
  53	  67
  53	  70
  53	  92
  53	  94
  53	  98
  53	 104
  53	 105
  53	 106
  53	 108
  54	  59
  54	  69
  54	  70
  54	  74
  54	  80
  54	  89
  54	  93
  54	  95
  54	  97
  54	 108
  54	 109
  54	 112
  54	 113
  54	 114
  54	 119
  55	  60
  55	  61
  55	  69
  55	  72
  55	  73
  55	  74
  55	  81
  55	  85
  55	  95
  55	 100
  55	 103
  55	 104
  55	 112
  55	 115
  55	 118
  55	 119
  56	  68
  56	  72
  56	  73
  56	  74
  56	  75
  56	  77
  56	  78
  56	  82
  56	  84
  56	  97
  56	 101
  56	 107
  56	 108
  56	 110
  56	 111
  56	 113
  56	 115
  57	  60
  57	  66
  57	  69
  57	  71
  57	  77
  57	  80
  57	  85
  57	  91
  57	  92
  57	 105
  57	 115
  58	  63
  58	  65
  58	  68
  58	  75
  58	  83
  58	  88
  58	  89
  58	  91
  58	  93
  58	 101
  58	 108
  58	 111
  58	 116
  58	 117
  59	  62
  59	  64
  59	  85
  59	  87
  59	  88
  59	  92
  59	 106
  59	 113
  59	 115
  60	  73
  60	  74
  60	  76
  60	  78
  60	  84
  60	  89
  60	  95
  60	  97
  60	  99
  60	 102
  60	 110
  60	 114
  60	 115
  60	 116
  61	  66
  61	  71
  61	  77
  61	  79
  61	  80
  61	  82
  61	  83
  61	  86
  61	  97
  61	 102
  61	 108
  61	 109
  61	 118
  62	  65
  62	  66
  62	  73
  62	  75
  62	  78
  62	  81
  62	  82
  62	  85
  62	  90
  62	  92
  62	 101
  62	 108
  62	 116
  62	 119
  63	  69
  63	  84
  63	  87
  63	  90
  63	  97
  63	  99
  63	 103
  63	 107
  63	 114
  63	 118
  64	  65
  64	  67
  64	  72
  64	  78
  64	  90
  64	  91
  64	 115
  64	 118
  64	 119
  65	  66
  65	  72
  65	  76
  65	  85
  65	  89
  65	  95
  65	  96
  65	  97
  65	  99
  65	 100
  65	 102
  65	 103
  65	 115
  65	 118
  66	  70
  66	  76
  66	  87
  66	  91
  66	  94
  66	 106
  66	 107
  66	 109
  66	 111
  66	 115
  67	  68
  67	  69
  67	  72
  67	  86
  67	  88
  67	  97
  67	  98
  67	 102
  67	 108
  67	 109
  67	 115
  67	 119
  68	  72
  68	  74
  68	  84
  68	  87
  68	  88
  68	  92
  68	  96
  68	 101
  69	  92
  69	  93
  69	  98
  69	  99
  69	 108
  70	  74
  70	  76
  70	  77
  70	  78
  70	  84
  70	  92
  70	  98
  70	  99
  70	 105
  70	 107
  70	 112
  70	 113
  71	  83
  71	  86
  71	  95
  71	 107
  71	 108
  71	 111
  71	 113
  72	  74
  72	  83
  72	  88
  72	  90
  72	  92
  72	  96
  72	  99
  72	 100
  72	 102
  72	 103
  72	 107
  73	  75
  73	  80
  73	  90
  73	  95
  73	  96
  73	  99
  73	 105
  73	 112
  74	  82
  74	  91
  74	  92
  74	  94
  74	  95
  74	 100
  74	 101
  74	 102
  74	 106
  74	 107
  74	 113
  75	  76
  75	  77
  75	  83
  75	  89
  75	  92
  75	  97
  75	 102
  75	 103
  75	 104
  75	 106
  75	 112
  75	 116
  76	  80
  76	  81
  76	  82
  76	  91
  76	 116
  76	 118
  76	 119
  77	  78
  77	  91
  77	  96
  77	  99
  77	 108
  77	 111
  77	 114
  77	 119
  78	  79
  78	  86
  78	  93
  78	  99
  78	 100
  78	 101
  78	 108
  78	 116
  78	 119
  79	  80
  79	  85
  79	  87
  79	  98
  79	  99
  79	 101
  79	 102
  79	 106
  79	 107
  79	 112
  79	 113
  80	  89
  80	  90
  80	  91
  80	  94
  80	 100
  80	 108
  81	  83
  81	  84
  81	  90
  81	  94
  81	  96
  81	  98
  81	 101
  81	 108
  81	 109
  81	 115
  81	 116
  81	 119
  82	  92
  82	  93
  82	  95
  82	  96
  82	 102
  82	 104
  82	 113
  82	 118
  83	  88
  83	  90
  83	  94
  83	 101
  83	 105
  83	 107
  84	  93
  84	  99
  84	 101
  84	 102
  84	 105
  84	 109
  84	 116
  84	 117
  84	 119
  85	  86
  85	  89
  85	 100
  85	 108
  85	 116
  85	 118
  86	  94
  86	  98
  86	  99
  86	 110
  86	 113
  86	 118
  87	  95
  87	 118
  88	  99
  88	 100
  88	 106
  88	 107
  88	 116
  89	  91
  89	  99
  89	 109
  90	  96
  90	 100
  90	 104
  90	 111
  90	 115
  90	 116
  91	  97
  91	 100
  92	  95
  92	 100
  92	 102
  92	 107
  93	  95
  93	  98
  93	  99
  93	 102
  93	 105
  93	 110
  93	 118
  94	  95
  94	 108
  94	 117
  94	 119
  95	  98
  95	  99
  95	 108
  95	 112
  95	 114
  95	 118
  96	  98
  96	 109
  96	 114
  96	 116
  97	  98
  97	 103
  97	 115
  98	 100
  98	 106
  98	 114
  99	 108
  99	 109
  99	 110
  99	 111
  99	 114
 100	 102
 100	 105
 100	 110
 100	 112
 100	 113
 101	 108
 101	 112
 101	 113
 103	 108
 104	 107
 104	 113
 104	 114
 104	 117
 105	 109
 105	 115
 107	 114
 107	 117
 107	 119
 108	 112
 108	 114
 108	 119
 109	 112
 109	 113
 110	 113
 111	 112
 112	 115
 113	 117
 114	 116
 115	 117
 115	 118
 115	 119
;
